
Starting CP-SAT solver v9.15.6755
Parameters: random_seed: 2026074012 max_time_in_seconds: 2500 log_search_progress: true cp_model_presolve: true linearization_level: 2 num_search_workers: 4 cp_model_probing_level: 2 symmetry_level: 2

Initial satisfaction model '': (model_fingerprint: 0xda84bdee4fb2e03f)
#Variables: 724 (608 primary variables)
  - 724 Booleans in [0,1]
#kBoolAnd: 110 (#enforced: 110) (#literals: 330)
#kBoolOr: 110 (#enforced: 110) (#literals: 220)
#kExactlyOne: 87 (#literals: 261)
#kLinear1: 32 (#enforced: 6)
#kLinear2: 336 (#enforced: 336) (#complex_domain: 110)
#kLinear3: 1'600 (#enforced: 6)
#kLinearN: 1'132 (#enforced: 243) (#terms: 9'111)

Starting presolve at 0.00s
  6.69e-04s  0.00e+00d  [DetectDominanceRelations] 
  8.60e-03s  0.00e+00d  [PresolveToFixPoint] #num_loops=3 #num_dual_strengthening=1 
  3.60e-05s  0.00e+00d  [ExtractEncodingFromLinear] #potential_supersets=91 
  2.84e-04s  0.00e+00d  [DetectDuplicateColumns] 
  1.05e-04s  0.00e+00d  [DetectDuplicateConstraints] #duplicates=5 
[Symmetry] Graph for symmetry has 4'871 nodes and 15'714 arcs.
[Symmetry] Symmetry computation done. time: 0.00123247 dtime: 0.00179239
[SAT presolve] num removable Booleans: 220 / 628
[SAT presolve] num trivial clauses: 0
[SAT presolve] [0s] clauses:2'732 literals:7'428 vars:507 one_side_vars:67 simple_definition:1 singleton_clauses:0
[SAT presolve] [0.000221767s] clauses:2'731 literals:7'421 vars:507 one_side_vars:67 simple_definition:1 singleton_clauses:0
[SAT presolve] [0.000680599s] clauses:2'246 literals:6'602 vars:381 one_side_vars:75 simple_definition:66 singleton_clauses:0
  1.26e-04s  0.00e+00d  [DetectDuplicateConstraintsWithDifferentEnforcements] #without_enforcements=5 
  5.54e-03s  2.37e-03d  [Probe] #probed=1'306 #fixed_bools=12 #equiv=8 #new_binary_clauses=1'237 
  5.05e-04s  3.11e-04d  [MaxClique] Merged 593 constraints with 1'339 literals into 507 constraints with 1'197 literals
  8.74e-04s  0.00e+00d  [DetectDominanceRelations] 
  3.13e-03s  0.00e+00d  [PresolveToFixPoint] #num_loops=1 #num_dual_strengthening=1 
  1.18e-03s  0.00e+00d  [ProcessAtMostOneAndLinear] 
  1.06e-04s  0.00e+00d  [DetectDuplicateConstraints] #duplicates=6 
  8.77e-05s  0.00e+00d  [DetectDuplicateConstraintsWithDifferentEnforcements] 
  3.32e-03s  1.01e-04d  [DetectDominatedLinearConstraints] #relevant_constraints=824 #num_inclusions=505 #num_redundant=7 
  1.19e-04s  0.00e+00d  [DetectDifferentVariables] 
  7.40e-04s  8.05e-05d  [ProcessSetPPC] #relevant_constraints=2'987 #num_inclusions=74 
  2.81e-04s  3.36e-05d  [TransformClausesToExactlyOne] #num_amos=498 #num_clauses=1'667 #num_checked=1'667 
  3.90e-05s  0.00e+00d  [DetectEncodedComplexDomains] 
  3.13e-05s  0.00e+00d  [FindAlmostIdenticalLinearConstraints] 
  8.84e-04s  1.30e-03d  [FindBigAtMostOneAndLinearOverlap] 
  1.29e-03s  9.58e-04d  [FindBigVerticalLinearOverlap] #blocks=5 #saved_nz=179 
  3.38e-04s  5.73e-04d  [FindBigHorizontalLinearOverlap] #linears=452 
  3.27e-04s  2.68e-05d  [MergeClauses] #num_collisions=17 #num_merges=17 #num_saved_literals=85 
  8.11e-04s  0.00e+00d  [DetectDominanceRelations] 
  3.10e-03s  0.00e+00d  [PresolveToFixPoint] #num_loops=2 #num_dual_strengthening=1 
  8.23e-04s  0.00e+00d  [DetectDominanceRelations] 
  2.90e-03s  0.00e+00d  [PresolveToFixPoint] #num_loops=1 #num_dual_strengthening=1 
  1.66e-04s  0.00e+00d  [DetectDuplicateColumns] 
  1.03e-04s  0.00e+00d  [DetectDuplicateConstraints] 
[Symmetry] Graph for symmetry has 4'354 nodes and 13'397 arcs.
[Symmetry] Symmetry computation done. time: 0.000958393 dtime: 0.00130293
[SAT presolve] num removable Booleans: 93 / 487
[SAT presolve] num trivial clauses: 0
[SAT presolve] [0s] clauses:2'133 literals:6'314 vars:460 one_side_vars:151 simple_definition:81 singleton_clauses:0
[SAT presolve] [0.000208072s] clauses:2'131 literals:6'141 vars:460 one_side_vars:193 simple_definition:70 singleton_clauses:0
[SAT presolve] [0.000285036s] clauses:2'124 literals:6'134 vars:456 one_side_vars:195 simple_definition:58 singleton_clauses:0
  1.53e-04s  0.00e+00d  [DetectDuplicateConstraintsWithDifferentEnforcements] 
  6.18e-03s  2.06e-03d  [Probe] #probed=1'306 #new_binary_clauses=799 
  4.33e-04s  3.63e-04d  [MaxClique] Merged 505 constraints with 1'126 literals into 498 constraints with 1'124 literals
  8.37e-04s  0.00e+00d  [DetectDominanceRelations] 
  3.00e-03s  0.00e+00d  [PresolveToFixPoint] #num_loops=1 #num_dual_strengthening=1 
  1.08e-03s  0.00e+00d  [ProcessAtMostOneAndLinear] 
  1.23e-04s  0.00e+00d  [DetectDuplicateConstraints] 
  9.86e-05s  0.00e+00d  [DetectDuplicateConstraintsWithDifferentEnforcements] 
  8.27e-04s  5.38e-05d  [DetectDominatedLinearConstraints] #relevant_constraints=817 #num_inclusions=294 
  1.22e-04s  0.00e+00d  [DetectDifferentVariables] 
  7.26e-04s  7.07e-05d  [ProcessSetPPC] #relevant_constraints=3'031 #num_inclusions=84 
  2.68e-04s  3.33e-05d  [TransformClausesToExactlyOne] #num_amos=496 #num_clauses=1'673 #num_checked=1'673 
  1.50e-04s  0.00e+00d  [DetectEncodedComplexDomains] 
  4.63e-05s  1.90e-07d  [FindAlmostIdenticalLinearConstraints] #num_tested_pairs=2 
  8.00e-04s  1.05e-03d  [FindBigAtMostOneAndLinearOverlap] 
  1.19e-03s  9.18e-04d  [FindBigVerticalLinearOverlap] 
  3.59e-04s  5.73e-04d  [FindBigHorizontalLinearOverlap] #linears=452 
  3.48e-04s  2.61e-05d  [MergeClauses] #num_collisions=72 #num_merges=72 #num_saved_literals=210 
  8.61e-04s  0.00e+00d  [DetectDominanceRelations] 
  3.03e-03s  0.00e+00d  [PresolveToFixPoint] #num_loops=1 #num_dual_strengthening=1 
  8.27e-04s  0.00e+00d  [DetectDominanceRelations] 
  2.98e-03s  0.00e+00d  [PresolveToFixPoint] #num_loops=1 #num_dual_strengthening=1 
  1.44e-04s  0.00e+00d  [DetectDuplicateColumns] 
  9.63e-05s  0.00e+00d  [DetectDuplicateConstraints] 
[Symmetry] Graph for symmetry has 4'284 nodes and 13'058 arcs.
[Symmetry] Symmetry computation done. time: 0.000920892 dtime: 0.00127439
[SAT presolve] num removable Booleans: 89 / 483
[SAT presolve] num trivial clauses: 0
[SAT presolve] [0s] clauses:2'114 literals:6'107 vars:456 one_side_vars:197 simple_definition:58 singleton_clauses:0
[SAT presolve] [0.000195297s] clauses:2'114 literals:6'107 vars:456 one_side_vars:197 simple_definition:58 singleton_clauses:0
[SAT presolve] [0.000257865s] clauses:2'114 literals:6'107 vars:456 one_side_vars:197 simple_definition:58 singleton_clauses:0
  1.77e-04s  0.00e+00d  [DetectDuplicateConstraintsWithDifferentEnforcements] 
  5.96e-03s  2.06e-03d  [Probe] #probed=1'306 #new_binary_clauses=799 
  4.31e-04s  3.57e-04d  [MaxClique] 
  8.94e-04s  0.00e+00d  [DetectDominanceRelations] 
  3.13e-03s  0.00e+00d  [PresolveToFixPoint] #num_loops=1 #num_dual_strengthening=1 
  1.12e-03s  0.00e+00d  [ProcessAtMostOneAndLinear] 
  1.37e-04s  0.00e+00d  [DetectDuplicateConstraints] 
  1.06e-04s  0.00e+00d  [DetectDuplicateConstraintsWithDifferentEnforcements] 
  8.50e-04s  5.38e-05d  [DetectDominatedLinearConstraints] #relevant_constraints=817 #num_inclusions=294 
  1.34e-04s  0.00e+00d  [DetectDifferentVariables] 
  7.23e-04s  7.05e-05d  [ProcessSetPPC] #relevant_constraints=3'028 #num_inclusions=81 
  2.96e-04s  3.33e-05d  [TransformClausesToExactlyOne] #num_amos=495 #num_clauses=1'673 #num_checked=1'673 
  1.56e-04s  0.00e+00d  [DetectEncodedComplexDomains] 
  5.73e-05s  1.90e-07d  [FindAlmostIdenticalLinearConstraints] #num_tested_pairs=2 
  7.93e-04s  1.04e-03d  [FindBigAtMostOneAndLinearOverlap] 
  1.19e-03s  8.84e-04d  [FindBigVerticalLinearOverlap] #blocks=1 #saved_nz=43 
  3.45e-04s  5.37e-04d  [FindBigHorizontalLinearOverlap] #linears=450 
  3.67e-04s  2.61e-05d  [MergeClauses] #num_collisions=72 #num_merges=72 #num_saved_literals=210 
  8.69e-04s  0.00e+00d  [DetectDominanceRelations] 
  3.10e-03s  0.00e+00d  [PresolveToFixPoint] #num_loops=2 #num_dual_strengthening=1 
  3.02e-05s  0.00e+00d  [MergeNoOverlap] 
  3.18e-05s  0.00e+00d  [MergeNoOverlap2D] 

Presolve summary:
  - 37 affine relations were detected.
  - rule 'TODO dual: only one blocking constraint?' was applied 872 times.
  - rule 'TODO dual: tighten at most one' was applied 8 times.
  - rule 'TODO linear inclusion: superset is equality' was applied 212 times.
  - rule 'affine: new relation' was applied 37 times.
  - rule 'at_most_one: removed literals' was applied 61 times.
  - rule 'at_most_one: size one' was applied 60 times.
  - rule 'at_most_one: transformed into max clique' was applied 2 times.
  - rule 'bool_or: implications' was applied 50 times.
  - rule 'bool_or: only one literal' was applied 12 times.
  - rule 'bool_or: removed enforcement literal' was applied 573 times.
  - rule 'deductions: 868 stored' was applied 1 time.
  - rule 'duplicate: merged rhs of linear constraint' was applied 10 times.
  - rule 'duplicate: removed constraint' was applied 11 times.
  - rule 'duplicate: removed enforced constraint' was applied 5 times.
  - rule 'enforcement: false literal' was applied 33 times.
  - rule 'enforcement: true literal' was applied 8 times.
  - rule 'exactly_one: removed literals' was applied 32 times.
  - rule 'exactly_one: satisfied' was applied 3 times.
  - rule 'exactly_one: singleton' was applied 3 times.
  - rule 'exactly_one: size two' was applied 29 times.
  - rule 'exactly_one: x and not(x)' was applied 6 times.
  - rule 'incompatible linear: add implication' was applied 129 times.
  - rule 'linear + amo: empty after processing' was applied 6 times.
  - rule 'linear + amo: extracted enforcement literal' was applied 60 times.
  - rule 'linear + amo: trivial linear constraint' was applied 2 times.
  - rule 'linear inclusion: redundant containing constraint' was applied 3 times.
  - rule 'linear inclusion: redundant included constraint' was applied 3 times.
  - rule 'linear inclusion: sparsify superset' was applied 1 time.
  - rule 'linear matrix: common vertical rectangle' was applied 6 times.
  - rule 'linear1: x in domain' was applied 26 times.
  - rule 'linear2: convert ax + by != cte to clauses' was applied 250 times.
  - rule 'linear2: convert implied ax + by == cte to clauses' was applied 118 times.
  - rule 'linear2: implied ax + by = cte has only one solution' was applied 8 times.
  - rule 'linear: always true' was applied 426 times.
  - rule 'linear: coefficient strengthening by increasing it' was applied 2 times.
  - rule 'linear: empty' was applied 1 time.
  - rule 'linear: extracted at most one (max)' was applied 1 time.
  - rule 'linear: fixed or dup variables' was applied 879 times.
  - rule 'linear: negative clause' was applied 1'297 times.
  - rule 'linear: negative reified and' was applied 78 times.
  - rule 'linear: never in domain' was applied 6 times.
  - rule 'linear: positive at most one' was applied 38 times.
  - rule 'linear: reduced variable domains' was applied 7 times.
  - rule 'linear: remapped using affine relations' was applied 22 times.
  - rule 'new_bool: integer encoding' was applied 6 times.
  - rule 'presolve: 77 unused variables removed.' was applied 1 time.
  - rule 'presolve: iteration' was applied 3 times.
  - rule 'probing: bool_or reduced to implication' was applied 23 times.
  - rule 'probing: simplified clauses' was applied 19 times.
  - rule 'setppc: bool_or in at_most_one' was applied 7 times.
  - rule 'setppc: removed dominated constraints' was applied 93 times.
  - rule 'variables: add encoding constraint' was applied 6 times.

Presolved satisfaction model '': (model_fingerprint: 0x7b177e8ed44ec230)
#Variables: 489 (422 primary variables)
  - 483 Booleans in [0,1]
  - 6 in [0,2]
#kAtMostOne: 54 (#literals: 224)
#kBoolAnd: 269 (#enforced: 269) (#literals: 710)
#kBoolAndClauses: 72 (#enforced: 72 #multi: 72) (#literals: 354)
#kBoolOr: 1'529 (#literals: 4'661)
#kExactlyOne: 52 (#literals: 204)
#kLinear1: 12 (#enforced: 12)
#kLinear3: 12 (#enforced: 8)
#kLinearN: 806 (#enforced: 120) (#terms: 5'489)
[Symmetry] Graph for symmetry has 4'040 nodes and 13'016 arcs.
[Symmetry] Symmetry computation done. time: 0.000804894 dtime: 0.00126649

Preloading model.
#Model   0.10s var:489/489 constraints:2806/2806

Starting search at 0.10s with 4 workers.
3 full problem subsolvers: [default_lp, max_lp, no_lp]
1 first solution subsolver: [fj]
2 interleaved subsolvers: [feasibility_pump, rins/rens]
2 helper subsolvers: [neighborhood_helper, synchronization_agent]

#Model  76.77s var:488/489 constraints:2788/2806
#Model 482.22s var:487/489 constraints:2786/2806

Task timing                   n [     min,      max]      avg      dev     time         n [     min,      max]      avg      dev    dtime
        'default_lp':         1 [  41.67m,   41.67m]   41.67m   0.00ns   41.67m         2 [  2.17ms,   40.61m]   20.31m   20.31m   40.61m
  'feasibility_pump':     12391 [ 33.00us, 117.91ms]   1.63ms   1.10ms   20.20s     12389 [277.57us, 104.86ms] 288.57us 939.52us    3.58s
                'fj':      8685 [110.33ms, 242.80ms] 142.67ms   9.60ms   20.65m      8685 [100.00ms, 100.13ms] 100.02ms  13.16us   14.48m
            'max_lp':         1 [  41.67m,   41.67m]   41.67m   0.00ns   41.67m         2 [ 72.12ms,   52.27m]   26.13m   26.13m   52.27m
             'no_lp':         1 [  41.67m,   41.67m]   41.67m   0.00ns   41.67m         2 [  1.92ms,    1.41h]   42.29m   42.29m    1.41h
         'rins/rens':     11062 [ 24.61ms, 226.33ms] 112.01ms  40.79ms   20.65m     11061 [426.70us, 100.34ms]  68.37ms  36.92ms   12.60m

Search stats     Bools   Conflicts    Branches  Restarts  BacktrackToRoot   Backtrack     BoolPropag  IntegerPropag
  'default_lp':    483     222'181   7'580'130     1'327        1'199'900   1'737'227     80'653'122     98'086'704
      'max_lp':    483     131'928   8'378'843       750        1'279'304   1'721'301     88'922'440    111'575'161
       'no_lp':    483  22'321'435  29'484'552    75'968          540'183  22'648'463  1'924'516'929    499'014'479

SAT formula      Fixed  Equiv  Total  VarLeft  BinaryClauses  PermanentClauses  TemporaryClauses
  'default_lp':      2      1    483      480          2'634            46'948            10'392
      'max_lp':      2      1    483      480          2'634            46'695             8'083
       'no_lp':      2      1    483      480          2'634           133'405            11'755

SAT stats        ClassicMinim   LitRemoved  LitRemovedBinary   LitLearned  LitForgotten   Subsumed
  'default_lp':       196'716    2'304'595         1'707'238    6'416'882     4'121'022     79'564
      'max_lp':       114'302    1'474'554           780'968    3'296'663     1'984'814     42'068
       'no_lp':    20'076'743  328'352'384       105'319'617  522'577'388   400'919'906  6'588'758

Vivification       Clauses  Decisions  LitTrue  Subsumed  LitRemoved  DecisionReused  Conflicts
  'default_lp':  1'246'463  7'025'844        1    13'734     140'224         350'243      1'127
      'max_lp':  1'266'235  7'881'382        0    15'141     156'790         331'504      1'073
       'no_lp':    390'068  3'188'912        0    24'948     315'021          97'542        909

Clause deletion    at_true  l_and_not(l)  to_binary  sub_conflict  sub_extra  sub_decisions  sub_eager  sub_vivify  sub_probing  sub_inpro  blocked  eliminated   forgotten    promoted   conflicts
    'default_lp':      804             0          1        78'365        512          1'870      1'199      13'734        1'370      9'595        0           0     119'126     431'030     222'181
        'max_lp':      479             0          1        41'546        404          1'215        522      15'141          770     10'538        0           0      68'266     272'650     131'928
         'no_lp':    1'478             0          2     6'471'497     40'271        329'661    117'261      24'948        2'131    121'573        0           0  15'072'828  50'263'899  22'321'435

Lp stats         Component  Iterations  AddedCuts  OPTIMAL  DUAL_F.  DUAL_U.
  'default_lp':          1  30'042'425     87'449  317'809        1  190'296
      'max_lp':          1  14'046'900     99'467   47'964  115'715   38'446

Lp dimension        Final dimension of first component
  'default_lp':    306 rows, 347 columns, 7966 entries
      'max_lp':  1316 rows, 489 columns, 18671 entries

Lp debug         CutPropag  CutEqPropag   Adjust  Overflow        Bad  BadScaling
  'default_lp':          0           90  190'293         0  2'665'953           0
      'max_lp':          0           46   38'443         0  3'011'428           0

Lp pool          Constraints  Updates  Simplif  Merged  Shortened  Split  Strengthened       Cuts/Call
  'default_lp':       10'222   16'346        0       0         65      0             3  87'449/150'399
      'max_lp':       12'598   29'622        0       2         82      0         1'928  99'467/204'044

Lp Cut            max_lp  default_lp
          CG_FF:     105       1'120
           CG_K:      10         614
          CG_KL:       2         533
           CG_R:      70       1'132
          CG_RB:       4          86
         CG_RBP:       2          17
         Clique:     192           -
             IB:      11         128
       MIR_1_FF:     931         533
        MIR_1_K:      43          81
       MIR_1_KL:      65         386
        MIR_1_R:     577         489
       MIR_1_RB:       2           2
      MIR_1_RBP:       1           -
      MIR_1_RLT:   8'554           -
       MIR_2_FF:   1'113         617
        MIR_2_K:     251         131
       MIR_2_KL:     135         286
        MIR_2_R:     997         715
       MIR_2_RB:       9          12
      MIR_2_RBP:       7          21
       MIR_3_FF:     298         273
        MIR_3_K:      52          45
       MIR_3_KL:      26          80
        MIR_3_R:     322         268
       MIR_3_RB:       1          18
      MIR_3_RBP:       7          10
       MIR_4_FF:      95          89
        MIR_4_K:      37          13
       MIR_4_KL:       2          28
        MIR_4_R:     249         173
       MIR_4_RB:       -           8
      MIR_4_RBP:       6           5
       MIR_5_FF:      27          36
        MIR_5_K:       8           8
       MIR_5_KL:       1           3
        MIR_5_R:     261         110
       MIR_5_RB:       2          10
      MIR_5_RBP:       8           4
       MIR_6_FF:      16          28
        MIR_6_K:       4           9
       MIR_6_KL:       1           1
        MIR_6_R:     228          82
       MIR_6_RB:       4           7
      MIR_6_RBP:      11           6
   ZERO_HALF_FF:     587         433
    ZERO_HALF_K:      61          88
   ZERO_HALF_KL:      10          97
    ZERO_HALF_R:  84'012      78'583
   ZERO_HALF_RB:       2           7
  ZERO_HALF_RBP:      48          24

LNS stats       Improv/Calls  Closed  Difficulty  TimeLimit
  'rins/rens':   11061/11061     50%    7.62e-01       0.10

LS stats                                    Batches  Restarts/Perturbs    LinMoves   GenMoves  CompoundMoves  Bactracks  WeightUpdates  ScoreComputed
                             'fj_restart':      337                124   9'995'537          0              0          0      8'324'285     17'161'970
                    'fj_restart_compound':      269                111           0  3'043'331        228'528  1'407'177          6'140     50'218'489
                'fj_restart_compound_obj':      500                119           0  5'841'842        311'384  2'764'993         13'923     93'459'483
            'fj_restart_compound_perturb':      306                104           0  3'529'218        243'869  1'642'489          7'111     57'190'143
        'fj_restart_compound_perturb_obj':      650                108           0  7'677'545        304'094  3'686'531         21'310    121'914'823
                       'fj_restart_decay':    1'031                103  35'207'878          0              0          0      1'461'821     21'258'902
              'fj_restart_decay_compound':      607                116           0  8'074'639      1'257'111  3'408'467          7'996    115'514'270
          'fj_restart_decay_compound_obj':      291                112           0  3'503'795        562'654  1'470'299          3'941     54'982'836
      'fj_restart_decay_compound_perturb':      480                125           0  6'089'147        966'421  2'561'060          6'409     90'900'061
  'fj_restart_decay_compound_perturb_obj':      492                141           0  6'335'174        988'290  2'673'115          6'534     93'333'046
                   'fj_restart_decay_obj':      811                134  27'680'950          0              0          0      1'149'617     16'731'660
               'fj_restart_decay_perturb':      657                125  22'413'637          0              0          0        931'376     13'533'663
           'fj_restart_decay_perturb_obj':      442                109  15'077'471          0              0          0        626'665      9'106'528
                         'fj_restart_obj':      517                136  15'056'710          0              0          0     12'997'771     27'577'165
                     'fj_restart_perturb':      517                125  15'747'667          0              0          0     13'037'881     26'914'608
                 'fj_restart_perturb_obj':      778                113  23'058'416          0              0          0     19'940'920     40'013'642

Solution repositories    Added  Queried  Synchro
    'alternative_path':      0        0        0
      'best_solutions':      0        0        0
   'fj solution hints':  1'897        0    1'897
        'lp solutions':  1'542   11'062    1'541
                'pump':      0        0

Improving bounds shared    Num  Sym
            'default_lp':    2    0

Clauses shared    #Exported  #Imported  #BinaryRead  #BinaryTotal
   'default_lp':      2'640     60'024          310           310
       'max_lp':      2'498     60'020          310           310
        'no_lp':     58'993      5'388          310           310

LRAT_status: NA
CpSolverResponse summary:
status: UNKNOWN
objective: NA
best_bound: NA
integers: 359
booleans: 483
conflicts: 22321435
branches: 29484552
propagations: 1924516929
integer_propagations: 499014479
restarts: 75968
lp_iterations: 0
walltime: 2500.27
usertime: 2500.27
deterministic_time: 12275.8
gap_integral: 0

{
  "board_size": 22,
  "parity_proved": 0,
  "target": 34,
  "child_id": 1912,
  "child_count": 2640,
  "partition": "unknown_pair_x_diag_plus_twos_x_diag_minus_twos",
  "build_seconds": 0.08011269569396973,
  "workers": 4,
  "requested_seed": 2026074012,
  "effective_seed": 2026074012,
  "main_diagonal_pair": [
    4,
    15
  ],
  "pair_index": 82,
  "diag_plus_twos": 16,
  "diag_minus_twos": 16,
  "pair_excess": 3,
  "residual_certificate_slack": 109,
  "analytic_minimum_line_defect": 24,
  "analytic_defect_details": {
    "row_costs": {
      "12": 6,
      "13": 3,
      "14": 0,
      "15": 0,
      "16": 0,
      "17": 0
    },
    "column_costs": {
      "12": 6,
      "13": 3,
      "14": 0,
      "15": 0,
      "16": 0,
      "17": 0
    },
    "plus_cost": 24,
    "minus_cost": 0,
    "row_column_minimum": 0
  },
  "maximal_line_constraints": 2455,
  "analytic_infeasible": false,
  "allowed_points": 242,
  "status": "UNKNOWN",
  "proof_method": "cp_sat_all_lines_with_certificate_profile_cuts",
  "elapsed_seconds": 2500.270098209381,
  "branches": 29484552,
  "conflicts": 22321435
}
